20180228 729483.86 432814.81
20180131 729483.84 432814.80
20171231 729342.41 432673.36
20171130 728061.04 431391.99
20171116 728061.04 431391.99
20171031 651388.64 430058.62
20170831 650072.10 428742.08
20170731 650071.78 428741.76
20170630 650045.58 428715.56
20170430 646703.94 425373.92
20170331 646606.24 425276.22
20170228 646582.29 425252.26
20170131 645421.88 424091.86
20161231 645336.06 424006.04
20161223 645336.06 424006.04
20161130 645247.10 423917.08
20161031 645079.80 423749.78
20160930 645079.80 423749.78
20160831 643663.47 422333.45
20160729 643503.27 422173.25
20151231 643502.01 422171.99
20150630 643502.01 422171.99
